p min 17 25
n 15 -1
n 16 1
a 2 3 0 1 0
a 2 9 0 1 -100
a 3 4 0 1 0
a 3 10 0 1 -100
a 3 17 0 1 0
a 4 5 0 1 0
a 4 11 0 1 -100
a 4 17 0 1 48496
a 5 6 0 1 0
a 5 12 0 1 -100
a 5 17 0 1 119073
a 6 7 0 1 0
a 6 13 0 1 -100
a 6 17 0 1 165651
a 7 14 0 1 -100
a 8 9 0 1 -100
a 9 10 0 1 -100
a 10 11 0 1 -100
a 11 12 0 1 -100
a 12 13 0 1 -100
a 13 14 0 1 -100
a 14 15 0 1 -100
a 16 2 0 1 -1400000
a 16 5 0 1 -1540000
a 17 7 0 1 -199235
